(set-logic ALL)
(declare-const x String)
(declare-const y String)
(assert (str.in_re x (re.* (str.to_re "aC1xDsrbb12"))))
(assert (str.in_re y (str.to_re "ay3~F6u}b'\r't\\h'\n'2' 'Q!D")))
(assert (= 5 1))
(assert (= (str.len y) (str.to_int x)))
(check-sat)
